SCIP Status        : solving was interrupted [time limit reached]
Total Time         :    3600.01
  solving          :    3600.01
  presolving       :       0.02 (included in solving)
  reading          :       0.00
  copying          :       0.15 (57 #copies) (minimal 0.00, maximal 0.00, average 0.00)
Original Problem   :
  Problem name     : ghg_1veh
  Variables        : 30 (2 binary, 10 integer, 0 implicit integer, 18 continuous)
  Constraints      : 38 initial, 38 maximal
  Objective        : minimize, 3 non-zeros (abs.min = 1, abs.max = 14.6265)
Presolved Problem  :
  Problem name     : t_ghg_1veh
  Variables        : 113 (4 binary, 0 integer, 2 implicit integer, 107 continuous)
  Constraints      : 22 initial, 22 maximal
  Objective        : minimize, 2 non-zeros (abs.min = 1, abs.max = 8.20276)
  Nonzeros         : 85 constraint, 7 clique table
Presolvers         :   ExecTime  SetupTime  Calls  FixedVars   AggrVars   ChgTypes  ChgBounds   AddHoles    DelCons    AddCons   ChgSides   ChgCoefs
  boundshift       :       0.00       0.00      0          0          0          0          0          0          0          0          0          0
  convertinttobin  :       0.00       0.00      0          0          0          0          0          0          0          0          0          0
  domcol           :       0.00       0.00      3          0          0          0          0          0          0          0          0          0
  dualagg          :       0.00       0.00      0          0          0          0          0          0          0          0          0          0
  dualcomp         :       0.00       0.00      3          0          0          0          0          0          0          0          0          0
  dualinfer        :       0.00       0.00      0          0          0          0          0          0          0          0          0          0
  dualsparsify     :       0.00       0.00      1          0          0          0          0          0          0          0          0          0
  gateextraction   :       0.00       0.00      0          0          0          0          0          0          0          0          0          0
  implics          :       0.00       0.00      7          0          0          0          0          0          0          0          0          0
  inttobinary      :       0.00       0.00      0          0          0          0          0          0          0          0          0          0
  qpkktref         :       0.00       0.00      0          0          0          0          0          0          0          0          0          0
  redvub           :       0.00       0.00      0          0          0          0          0          0          0          0          0          0
  sparsify         :       0.00       0.00      1          0          0          0          0          0          0          0          0          0
  stuffing         :       0.00       0.00      0          0          0          0          0          0          0          0          0          0
  trivial          :       0.00       0.00     13          4          0          0          0          0          0          0          0          0
  tworowbnd        :       0.00       0.00      0          0          0          0          0          0          0          0          0          0
  dualfix          :       0.00       0.00     13          0          0          0          0          0          0          0          0          0
  genvbounds       :       0.00       0.00      0          0          0          0          0          0          0          0          0          0
  probing          :       0.01       0.00      3          1          1          0          5          0          0          0          0          0
  pseudoobj        :       0.00       0.00      0          0          0          0          0          0          0          0          0          0
  symmetry         :       0.00       0.00      1          0          0          0          0          0          0          0          0          0
  vbounds          :       0.00       0.00      4          0          2          0          0          0          0          0          0          0
  setppc           :       0.00       0.00     21          1          2          0          0          0          5          0          0          0
  and              :       0.00       0.00      4          0          0          0          0          0          2          2          0          0
  linear           :       0.00       0.00      6          0          0          0          3          0          8          0          0          0
  nonlinear        :       0.02       0.00     24          0          0          0         14          0          5         -2          0          0
  benders          :       0.00       0.00      0          0          0          0          0          0          0          0          0          0
  components       :       0.00       0.00      1          0          0          0          0          0          0          0          0          0
  root node        :          -          -      -          4          -          -        243          -          -          -          -          -
Constraints        :     Number  MaxNumber  #Separate #Propagate    #EnfoLP    #EnfoRelax  #EnfoPS    #Check   #ResProp    Cutoffs    DomReds       Cuts    Applied      Conss   Children
  benderslp        :          0          0          0          0    2586093          0         53       4890          0          0          0          0          0          0          0
  integral         :          0          0          0          0    2586093          0          0       4890          0          0         29          0          0          0          6
  setppc           :          1          1         39        299          0          0          0       4886          0          0          4          0          0          0          0
  linear           :          0+         4          0    2750256          0          0          0          0          0      20318     265160          0          0          0          0
  nonlinear        :         21         21    2935325    4628634    2586085          0         53       4884          0     775643   26476189     803576     570824          0    3365710
  benders          :          0          0          0          0      34940          0         53         61          0          0          0          0          0          0          0
  countsols        :          0          0          0          0      34940          0         53         61          0          0          0          0          0          0          0
  components       :          0          0          0          0          0          0          0          0          0          0          0          0          0          0          0
Constraint Timings :  TotalTime  SetupTime   Separate  Propagate     EnfoLP     EnfoPS     EnfoRelax   Check    ResProp    SB-Prop
  benderslp        :       0.55       0.00       0.00       0.00       0.55       0.00       0.00       0.00       0.00       0.00
  integral         :       0.50       0.00       0.00       0.00       0.50       0.00       0.00       0.00       0.00       0.00
  setppc           :       0.00       0.00       0.00       0.00       0.00       0.00       0.00       0.00       0.00       0.00
  linear           :       3.09       0.00       0.00       3.09       0.00       0.00       0.00       0.00       0.00       0.00
  nonlinear        :     857.25       0.00     180.79     349.68     326.72       0.00       0.00       0.05       0.00       0.01
  benders          :       0.01       0.00       0.00       0.00       0.01       0.00       0.00       0.00       0.00       0.00
  countsols        :       0.01       0.00       0.00       0.00       0.01       0.00       0.00       0.00       0.00       0.00
  components       :       0.47       0.00       0.00       0.47       0.00       0.00       0.00       0.00       0.00       0.00
Propagators        : #Propagate   #ResProp    Cutoffs    DomReds
  dualfix          :          7          0          0          0
  genvbounds       :    1684663          0          0        161
  nlobbt           :          0          0          0          0
  obbt             :          5          0          0          1
  probing          :          0          0          0          0
  pseudoobj        :    7234909          0          0        101
  redcost          :         72          0          0          0
  rootredcost      :          5          0          0          0
  symmetry         :          0          0          0          0
  vbounds          :        456          0          0          0
Propagator Timings :  TotalTime  SetupTime   Presolve  Propagate    ResProp    SB-Prop
  dualfix          :       0.00       0.00       0.00       0.00       0.00       0.00
  genvbounds       :       3.46       0.00       0.00       3.46       0.00       0.00
  nlobbt           :       0.00       0.00       0.00       0.00       0.00       0.00
  obbt             :       0.04       0.00       0.00       0.04       0.00       0.00
  probing          :       0.01       0.00       0.01       0.00       0.00       0.00
  pseudoobj        :       3.38       0.00       0.00       3.38       0.00       0.00
  redcost          :       1.55       0.00       0.00       1.55       0.00       0.00
  rootredcost      :       1.41       0.00       0.00       1.41       0.00       0.00
  symmetry         :       0.53       0.00       0.00       0.52       0.00       0.00
  vbounds          :       1.19       0.00       0.00       1.19       0.00       0.00
Conflict Analysis  :       Time      Calls    Success    DomReds  Conflicts   Literals    Reconvs ReconvLits   Dualrays   Nonzeros   LP Iters   (pool size: [--,--])
  propagation      :       0.00          0          0          -          0        0.0          0        0.0          -          -          -
  infeasible LP    :       9.58     364573          4          -          0        0.0          0        0.0          3        5.3          0
  bound exceed. LP :       5.16      83837        406          -          0        0.0          0        0.0        406       10.7          0
  strong branching :       0.00          0          0          -          0        0.0          0        0.0          -          -          0
  pseudo solution  :       0.00          0          0          -          0        0.0          0        0.0          -          -          -
  applied globally :       0.00          -          -          0          0        0.0          -          -          0          -          -
  applied locally  :          -          -          -          1          0        0.0          -          -        409          -          -
Separators         :   ExecTime  SetupTime      Calls  RootCalls    Cutoffs    DomReds  FoundCuts ViaPoolAdd  DirectAdd    Applied ViaPoolApp  DirectApp      Conss
  cut pool         :       0.08          -     294630         71          -          -        144        216          -          -          -          -          -    (maximal pool size:        144)
  aggregation      :       0.19       0.00         38         38          0          0         97        191          0         28         28          0          0
  > cmir           :          -          -          -          -          -          -          -        191          0         28         28          0          -
  > flowcover      :          -          -          -          -          -          -          -          0          0          0          0          0          -
  > knapsackcover  :          -          -          -          -          -          -          -          0          0          0          0          0          -
  cgmip            :       0.00       0.00          0          0          0          0          0          0          0          0          0          0          0
  clique           :       0.00       0.00         38         38          0          0          0          0          0          0          0          0          0
  closecuts        :       0.00       0.00          0          0          0          0          0          0          0          0          0          0          0
  convexproj       :       0.00       0.00          0          0          0          0          0          0          0          0          0          0          0
  disjunctive      :       0.00       0.00          0          0          0          0          0          0          0          0          0          0          0
  eccuts           :       0.00       0.00          0          0          0          0          0          0          0          0          0          0          0
  gauge            :       0.00       0.00          0          0          0          0          0          0          0          0          0          0          0
  gomory           :       0.00       0.00         10         10          0          0         39         17          0          9          9          0          0
  > gomorymi       :          -          -          -          -          -          -          -         17          0          9          9          0          -
  > strongcg       :          -          -          -          -          -          -          -          0          0          0          0          0          -
  impliedbounds    :       0.00       0.00         38         38          0          0          7          7          0          3          3          0          0
  interminor       :       0.00       0.00          0          0          0          0          0          0          0          0          0          0          0
  intobj           :       0.00       0.00          0          0          0          0          0          0          0          0          0          0          0
  mcf              :       0.00       0.00          1          1          0          0          0          0          0          0          0          0          0
  minor            :       0.02       0.00        744         39          0          0       1317          0       1317        455          0        455          0
  mixing           :       0.00       0.00        766         39          0          0          1          1          0          1          1          0          0
  oddcycle         :       0.00       0.00          0          0          0          0          0          0          0          0          0          0          0
  rapidlearning    :       0.05       0.00          0          0          0          0          0          0          0          0          0          0          0
  rlt              :       0.00       0.00         10         10          0          0          0          0          0          0          0          0          0
  zerohalf         :       0.00       0.00         20         20          0          0          0          0          0          0          0          0          0
Cutselectors       :   ExecTime  SetupTime      Calls  RootCalls   Selected     Forced   Filtered  RootSelec   RootForc   RootFilt 
  hybrid           :       0.43       0.00     336567         42     437233       1628     109032        215          0        408
Pricers            :   ExecTime  SetupTime      Calls       Vars
  problem variables:       0.00          -          0          0
Branching Rules    :   ExecTime  SetupTime   BranchLP  BranchExt   BranchPS    Cutoffs    DomReds       Cuts      Conss   Children
  allfullstrong    :       0.00       0.00          0          0          0          0          0          0          0          0
  cloud            :       0.00       0.00          0          0          0          0          0          0          0          0
  distribution     :       0.00       0.00          0          0          0          0          0          0          0          0
  fullstrong       :       0.00       0.00          0          0          0          0          0          0          0          0
  inference        :       0.00       0.00          0          0          0          0          0          0          0          0
  leastinf         :       0.00       0.00          0          0          0          0          0          0          0          0
  lookahead        :       0.00       0.00          0          0          0          0          0          0          0          0
  mostinf          :       0.00       0.00          0          0          0          0          0          0          0          0
  multaggr         :       0.00       0.00          0          0          0          0          0          0          0          0
  nodereopt        :       0.00       0.00          0          0          0          0          0          0          0          0
  pscost           :       0.35       0.00          0      34993          0          0          0          0          0      69986
  random           :       0.00       0.00          0          0          0          0          0          0          0          0
  relpscost        :       0.02       0.00          8          0          0          0         29          0          0          6
  vanillafullstrong:       0.00       0.00          0          0          0          0          0          0          0          0
Primal Heuristics  :   ExecTime  SetupTime      Calls      Found       Best
  LP solutions     :       0.00          -          -          0          0
  relax solutions  :       0.00          -          -          0          0
  pseudo solutions :       0.00          -          -          0          0
  strong branching :       0.00          -          -          0          0
  actconsdiving    :       0.00       0.00          0          0          0
  adaptivediving   :       0.23       0.00        445          0          0
  alns             :       0.69       0.00         57          0          0
  bound            :       0.00       0.00          0          0          0
  clique           :       0.01       0.00          1          0          0
  coefdiving       :       0.00       0.00          0          0          0
  completesol      :       0.00       0.00          0          0          0
  conflictdiving   :       0.23       0.00          0          0          0
  crossover        :       0.61       0.00          0          0          0
  dins             :       0.00       0.00          0          0          0
  distributiondivin:       1.15       0.00          0          0          0
  dps              :       0.00       0.00          0          0          0
  dualval          :       0.00       0.00          0          0          0
  farkasdiving     :       0.09       0.00          0          0          0
  feaspump         :       0.08       0.00          1          0          0
  fixandinfer      :       0.00       0.00          0          0          0
  fracdiving       :       0.14       0.00        520          0          0
  gins             :       0.54       0.00          0          0          0
  guideddiving     :       0.16       0.00        437          0          0
  indicator        :       0.60       0.00          0          0          0
  indicatordiving  :       0.00       0.00          0          0          0
  intdiving        :       0.00       0.00          0          0          0
  intshifting      :       0.05       0.00          1          0          0
  linesearchdiving :       0.18       0.00        462          0          0
  localbranching   :       0.00       0.00          0          0          0
  locks            :       0.00       0.00          1          0          0
  lpface           :       0.42       0.00         13          0          0
  mpec             :       0.55       0.00          1          0          0
  multistart       :       0.00       0.00          0          0          0
  mutation         :       0.00       0.00          0          0          0
  nlpdiving        :       0.04       0.00          0          0          0
  objpscostdiving  :       0.09       0.00          0          0          0
  octane           :       0.00       0.00          0          0          0
  ofins            :       0.40       0.00          0          0          0
  oneopt           :       0.55       0.00          5          0          0
  padm             :       0.00       0.00          0          0          0
  proximity        :       0.00       0.00          0          0          0
  pscostdiving     :       0.19       0.00          0          0          0
  randrounding     :       0.08       0.00         42          0          0
  rens             :       0.00       0.00          0          0          0
  reoptsols        :       0.00       0.00          0          0          0
  repair           :       0.00       0.00          0          0          0
  rins             :       0.22       0.00          0          0          0
  rootsoldiving    :       0.08       0.00          0          0          0
  rounding         :       0.64       0.00         59          0          0
  shiftandpropagate:       0.00       0.00          1          0          0
  shifting         :       0.08       0.00         42          0          0
  simplerounding   :       0.67       0.00          0          0          0
  subnlp           :      28.53       0.00       1471         60          5
  trivial          :       0.00       0.00          2          0          0
  trivialnegation  :       0.00       0.00          0          0          0
  trustregion      :       0.00       0.00          0          0          0
  trysol           :       0.49       0.00          0          0          0
  twoopt           :       0.00       0.00          0          0          0
  undercover       :       0.01       0.00          1          0          0
  vbounds          :       0.00       0.00          0          0          0
  veclendiving     :       0.13       0.00        514          0          0
  zeroobj          :       0.00       0.00          0          0          0
  zirounding       :       0.62       0.00          3          0          0
  other solutions  :          -          -          -          0          -
Expressions        :   #IntEval  IntEvalTi   #RevProp  RevPropTi    DomReds    Cutoffs  #Estimate  EstimTime  Branching  #Simplify SimplifyTi Simplified
  exp              :    7121633       1.14        698       0.00          0          0          0       0.00          0         15       0.00          0
  pow              :   33236986       6.12    1527608       0.87     110504          0    8956973       1.43      34525        367       0.00          0
  prod             :  133250688      37.06    1256055       0.72    1843506       1399    9158282     137.71    7002255        677       0.00        381
  sum              :   40268778       9.15   10123688       5.01    4277505       1107    4239661       0.40          0        652       0.00        194
  val              :          1       0.00          0       0.00          0          0          0       0.00          0          0       0.00          0
  var              :   22089120       1.51          0       0.00          0          0          0       0.00          0       1728       0.00        114
  varidx           :          0       0.00          0       0.00          0          0          0       0.00          0          0       0.00          0
Nlhdlrs            :    Detects  DetectAll DetectTime   #IntEval  IntEvalTi   #RevProp  RevPropTi    DomReds    Cutoffs   #Enforce   EnfoTime       Cuts  Branching
  soc              :          0          0       0.00          0       0.00          0       0.00          0          0          0       0.00          0          0
  convex           :          6          6       0.00          0       0.00          0       0.00          0          0      15740       0.02      12978          0
  concave          :          4          4       0.00          0       0.00          0       0.00          0          0      34438       0.07       7500          0
  signomial        :         25         25       0.00          0       0.00          0       0.00          0          0   14151580       9.72      81732          0
  quotient         :          2          2       0.00          0       0.00          0       0.00          0          0      32790       0.05         68          0
  quadratic        :          9        243       0.00   20339753      53.51   14505705      71.46     525284        521          0       0.00          0          0
  default          :        117       2613       0.00  213876057      65.64   12908189      16.78    6231515       2525   22365381     172.55     701315          0
  bilinear         :         17         17       0.00    6635328       1.63    1243289       2.08        107          0    1859968       0.31         18          0
  perspective      :          0          0       0.00          0       0.00          0       0.00          0          0          0       0.00          0          0
LP                 :       Time      Calls Iterations  Iter/call   Iter/sec  Time-0-It Calls-0-It    ItLimit
  primal LP        :      33.86      62706         33       1.00       0.97      33.84      62673
  dual LP          :    2083.00    3445979    3832528       2.64    1839.91     850.57    1995549
  lex dual LP      :       0.00          0          0       0.00          -
  barrier LP       :       0.00          0          0       0.00          -       0.00          0
  resolve instable :       0.05         44        675      15.34   13633.88
  diving/probing LP:       0.04         51       2074      40.67   56151.18
  strong branching :       0.01          9        589      65.44   55940.74          -          -          0
    (at root node) :          -          4        314      78.50          -
  conflict analysis:       0.00          0          0       0.00          -
NLP relaxation     :
  solve time       :       0.00 (0 calls)
  convexity        :  nonconvex (1 linear rows, 0 convex ineq., 8 nonconvex ineq., 13 nonlinear eq. or two-sided ineq.)
NLP Solvers        :  #Problems  ProblemTi    #Solves  SolveTime      #Iter  Time/Iter      #Okay #TimeLimit #IterLimit #LObjLimit #Interrupt  #NumError #EvalError  #OutOfMem #LicenseEr #OtherTerm   #GlobOpt    #LocOpt  #Feasible #LocInfeas #GlobInfea #Unbounded   #Unknown
  ipopt            :       1474       0.91       1473      14.25      16829       0.00       1460          0         13          0          0          0          0          0          0          0          0       1455          0          5          0          0         13
B&B Tree           :
  number of runs   :          1
  nodes            :    2971534 (1717851 internal, 1253683 leaves)
  feasible leaves  :          0
  infeas. leaves   :    1160519
  objective leaves :      93163
  nodes (total)    :    2971534 (1717851 internal, 1253683 leaves)
  nodes left       :     464170
  max depth        :        112
  max depth (total):        112
  backtracks       :     586255 (19.7%)
  early backtracks :          0 (0.0%)
  nodes exc. ref.  :          0 (0.0%)
  delayed cutoffs  :          0
  repropagations   :         94 (0 domain reductions, 0 cutoffs)
  avg switch length:      11.73
  switching time   :     125.22
Root Node          :
  First LP value   : -2.94576603544102e+01
  First LP Iters   :         80 (62942.56 Iter/sec)
  First LP Time    :       0.00
  Final Dual Bound : +1.43770747207263e+00
  Final Root Iters :        873
  Root LP Estimate : +1.23202441591147e+00
Solution           :
  Solutions found  :         60 (5 improvements)
  First Solution   : +7.78163481511685e+00   (in run 1, after 1 nodes, 0.06 seconds, depth 0, found by <subnlp>)
  Gap First Sol.   :   infinite
  Gap Last Sol.    :       0.00 %
  Primal Bound     : +7.78163481510976e+00   (in run 1, after 5568 nodes, 36.70 seconds, depth 51, found by <adaptivediving>)
  Dual Bound       : +7.78160900105504e+00
  Gap              :       0.00 %
Integrals          :      Total       Avg%
  primal-dual      :     167.61       0.05
  primal-ref       :          -          - (not evaluated)
  dual-ref         :          -          - (not evaluated)
